Food = {Beef,Chicken,Pork,Salmon,Shrimp,Squid,Oyster};
fibre = [0.05,0.05,0.05,0.05,0.05,0.05,0.05];
sugar = [0.45,0.45,0.45,0.45,0.45,0.45,0.45];
cost = [3.30,1.60,2.20,3.30,2.80,1.50,1.08];
satfat = [5.90,3.79,5.23,3.10,0.26,0.36,1.22];
protein = [25.93,27.30,27.32,20.42,13.61,15.58,21.55];
